50
50 50
1 40 917
2 40 972
3 40 815
4 40 57
5 39 401
6 38 878
7 37 396
8 36 547
9 34 352
10 33 277
11 33 384
12 33 409
13 32 737
14 32 177
15 31 374
16 31 488
17 31 971
18 31 357
19 29 951
20 27 691
21 26 4
22 26 253
23 25 700
24 24 434
25 23 303
26 23 255
27 23 815
28 22 910
29 21 720
30 21 511
31 20 223
32 20 537
33 19 233
34 18 141
35 14 61
36 13 26
37 11 744
38 11 78
39 11 601
40 11 261
41 11 978
42 9 476
43 9 715
44 8 504
45 7 687
46 7 946
47 6 399
48 6 761
49 5 258
50 5 811
